instances/shortest_path/discrete_knapsack_uncertainty/nohadani_4_19.kp
53816
97

[4.051115472279423 2.5155579630997797 2.7452310586635535 3.573050252276921 4.921654801425305 8.337519021949493 5.4713668082986135 9.291885588161808 8.292462290442868 5.832024293457724]

[59 83 97 42 55 93 12 67 4 69]
